************************************************************************
file with basedata            : md376_.bas
initial value random generator: 648292352
************************************************************************
projects                      :  1
jobs (incl. supersource/sink ):  22
horizon                       :  147
RESOURCES
  - renewable                 :  2   R
  - nonrenewable              :  2   N
  - doubly constrained        :  0   D
************************************************************************
PROJECT INFORMATION:
pronr.  #jobs rel.date duedate tardcost  MPM-Time
    1     20      0       21       10       21
************************************************************************
PRECEDENCE RELATIONS:
jobnr.    #modes  #successors   successors
   1        1          3           2   3   4
   2        3          2           5  17
   3        3          3           6   7  13
   4        3          2           7   8
   5        3          2          12  18
   6        3          1          16
   7        3          3           9  10  18
   8        3          3           9  10  11
   9        3          2          17  20
  10        3          2          14  21
  11        3          2          12  14
  12        3          3          13  16  20
  13        3          1          15
  14        3          3          15  16  20
  15        3          1          19
  16        3          1          19
  17        3          1          21
  18        3          2          19  21
  19        3          1          22
  20        3          1          22
  21        3          1          22
  22        1          0        
************************************************************************
REQUESTS/DURATIONS:
jobnr. mode duration  R 1  R 2  N 1  N 2
------------------------------------------------------------------------
  1      1     0       0    0    0    0
  2      1     7       3    5   10    9
         2    10       2    5    7    5
         3    10       2    4    7    7
  3      1     6       9    6   10    7
         2     7       6    5   10    7
         3     9       5    3    9    7
  4      1     2       5    7    7    6
         2     3       5    6    7    6
         3     8       4    3    7    6
  5      1     4       6    8    9    6
         2     4       6    7    9    7
         3    10       6    5    9    5
  6      1     6       5    5    4    4
         2     6       5    4    4    7
         3     7       2    4    3    1
  7      1     1       5    7    5    6
         2     5       4    6    4    6
         3     7       3    6    4    4
  8      1     3       7    7    8    8
         2     6       7    7    7    7
         3     9       5    4    5    6
  9      1     1       4    7    6    5
         2     2       4    6    5    4
         3     5       3    5    5    2
 10      1     1       5    8    5    7
         2     2       3    5    4    2
         3     2       4    4    4    2
 11      1     1       3    6    9    4
         2     2       3    4    6    2
         3     2       2    2    6    3
 12      1     3       8    6   10    7
         2     7       6    5    8    6
         3     8       2    4    8    5
 13      1     1       8    7    8    8
         2     6       8    6    7    8
         3     9       8    6    6    7
 14      1     3       8    3    6    4
         2     6       3    1    4    3
         3     6       6    1    4    2
 15      1     1       8    5    8    7
         2     4       6    5    4    6
         3    10       5    1    1    4
 16      1     4       2    3    9    6
         2     8       2    2    5    4
         3    10       2    2    4    3
 17      1     5       9    6    6    7
         2     8       7    4    6    6
         3     9       6    3    6    5
 18      1     1      10    7    9    8
         2     7       8    7    5    5
         3     8       5    6    3    2
 19      1     3       6    3    5    7
         2     5       5    3    5    5
         3     6       5    3    4    4
 20      1     2       3    9    4    8
         2     3       2    4    3    6
         3     7       2    3    3    4
 21      1     1       6    9    6    4
         2     2       6    8    5    3
         3     5       4    6    5    2
 22      1     0       0    0    0    0
************************************************************************
RESOURCEAVAILABILITIES:
  R 1  R 2  N 1  N 2
   32   28  134  119
************************************************************************
MAXIMAL LAGS:
from  to  type  delay
    1   12   ES      0
    1    2   ES      0
    2   12   ES      0
    1    3   ES      0
    3   12   ES      0
    1    4   ES      0
    4   12   ES      0
    1    5   ES      0
    5   12   ES      0
    1    6   ES      0
    6   12   ES      0
    1    7   ES      0
    7   12   ES      0
    1    8   ES      0
    8   12   ES      0
    1    9   ES      0
    9   12   ES      0
    1   10   ES      0
   10   12   ES      0
    1   11   ES      0
   11   12   ES      0
    1   12   ES      0
    2    5   SS     -7
    2    5   SE      8
    2    5   ES     -3
    2    5   EE      4
    2   17   SS      1
    2   17   SE     -9
    2   17   ES      9
    2   17   EE    -10
    3    6   SS     -2
    3    6   SE      1
    3    6   ES      9
    3    6   EE     12
    3    7   SS     12
    3    7   SE     -7
    3    7   ES     -5
    3    7   EE    -11
    3   13   SS     10
    3   13   SE      0
    3   13   ES      3
    3   13   EE      5
    4    7   SS    -12
    4    7   SE    -10
    4    7   ES      9
    4    7   EE      6
    4    8   SS     -4
    4    8   SE      0
    4    8   ES      3
    4    8   EE    -11
    5   18   SS    -10
    5   18   SE     -4
    5   18   ES     10
    5   18   EE    -10
    6   16   SS     -8
    6   16   SE      5
    6   16   ES    -12
    6   16   EE     -4
    7    9   SS     -3
    7    9   SE      2
    7    9   ES     -9
    7    9   EE     -7
    7   10   SS    -11
    7   10   SE      5
    7   10   ES     -6
    7   10   EE     12
    7   18   SS      1
    7   18   SE     -8
    7   18   ES     -3
    7   18   EE      5
    8    9   SS      2
    8    9   SE     -3
    8    9   ES      4
    8    9   EE     -2
    8   10   SS      0
    8   10   SE     -7
    8   10   ES     -6
    8   10   EE      2
    8   11   SS      5
    8   11   SE      8
    8   11   ES      5
    8   11   EE      1
    9   17   SS     10
    9   17   SE    -10
    9   17   ES      3
    9   17   EE     -5
    9   20   SS     -8
    9   20   SE      2
    9   20   ES      2
    9   20   EE      1
   10   14   SS    -12
   10   14   SE     10
   10   14   ES      1
   10   14   EE     12
   10   21   SS     -6
   10   21   SE      7
   10   21   ES      8
   10   21   EE      9
   11   14   SS     -2
   11   14   SE      8
   11   14   ES    -10
   11   14   EE     10
   12   13   SS     -5
   12   13   SE      1
   12   13   ES      5
   12   13   EE      6
   12   16   SS      6
   12   16   SE    -11
   12   16   ES      1
   12   16   EE     -1
   12   20   SS     12
   12   20   SE      3
   12   20   ES     -3
   12   20   EE    -10
   13   15   SS     10
   13   15   SE      1
   13   15   ES      6
   13   15   EE      5
   14   15   SS     -4
   14   15   SE      8
   14   15   ES     -5
   14   15   EE      1
   14   16   SS      0
   14   16   SE     10
   14   16   ES     -5
   14   16   EE      9
   14   20   SS     -5
   14   20   SE      3
   14   20   ES     11
   14   20   EE     -1
   15   19   SS      1
   15   19   SE     12
   15   19   ES    -10
   15   19   EE      4
   16   19   SS     -4
   16   19   SE     -1
   16   19   ES     -5
   16   19   EE     -2
   17   21   SS      3
   17   21   SE      2
   17   21   ES      3
   17   21   EE     10
   18   19   SS      3
   18   19   SE      4
   18   19   ES     -1
   18   19   EE      6
   18   21   SS     -8
   18   21   SE     10
   18   21   ES      7
   18   21   EE     -4
   19   22   SS     -2
   19   22   SE      4
   19   22   ES     -5
   19   22   EE      1
   20   22   SS    -10
   20   22   SE      5
   20   22   ES      9
   20   22   EE      4
   21   22   SS     10
   21   22   SE     -6
   21   22   ES      2
   21   22   EE     -3
************************************************************************
